10
0, 569, 221, 257, 496, 427, 528, 524, 666, 187
569, 0, 653, 643, 485, 317, 596, 248, 1204, 578
221, 653, 0, 473, 704, 606, 746, 684, 749, 407
257, 643, 473, 0, 346, 377, 328, 493, 579, 82
496, 485, 704, 346, 0, 175, 111, 247, 900, 346
427, 317, 606, 377, 175, 0, 282, 116, 957, 338
528, 596, 746, 328, 111, 282, 0, 359, 839, 354
524, 248, 684, 493, 247, 116, 359, 0, 1073, 453
666, 1204, 749, 579, 900, 957, 839, 1073, 0, 629
187, 578, 407, 82, 346, 338, 354, 453, 629, 0
